60 77 51 87 57 9 7 34 29 30 39 85 68 50 44 73 69 81 25 61 58 93 47 91 98 23 45 32 11 15 17 59 74 21 36 99 38 24 18 94 22 70 16 88 79 53 66 26 65 4 97 75 19 49 90 10 84 72 63 6 92 56 80 31 89 42 8 1 28 67 64 40 54 2 82 95 13 76 33 37 5 96 78 52 48 100 41 71 14 3 43 46 83 55 12 27 35 86 20 62 60